p cnf 640 470
c p distribution  0.875 0.125
c p distribution  0.875 0.125
c p distribution  0.875 0.125
c p distribution  0.875 0.125
c p distribution  0.875 0.125
c p distribution  0.875 0.125
c p distribution  0.875 0.125
c p distribution  0.875 0.125
c p distribution  0.875 0.125
c p distribution  0.875 0.125
c p distribution  0.875 0.125
c p distribution  0.875 0.125
c p distribution  0.875 0.125
c p distribution  0.875 0.125
c p distribution  0.875 0.125
c p distribution  0.875 0.125
c p distribution  0.875 0.125
c p distribution  0.875 0.125
c p distribution  0.875 0.125
c p distribution  0.875 0.125
c p distribution  0.875 0.125
c p distribution  0.875 0.125
c p distribution  0.875 0.125
c p distribution  0.875 0.125
c p distribution  0.875 0.125
c p distribution  0.875 0.125
c p distribution  0.875 0.125
c p distribution  0.875 0.125
c p distribution  0.875 0.125
c p distribution  0.875 0.125
c p distribution  0.875 0.125
c p distribution  0.875 0.125
c p distribution  0.875 0.125
c p distribution  0.875 0.125
c p distribution  0.875 0.125
c p distribution  0.875 0.125
c p distribution  0.875 0.125
c p distribution  0.875 0.125
c p distribution  0.875 0.125
c p distribution  0.875 0.125
c p distribution  0.875 0.125
c p distribution  0.875 0.125
c p distribution  0.875 0.125
c p distribution  0.875 0.125
c p distribution  0.875 0.125
c p distribution  0.875 0.125
c p distribution  0.875 0.125
c p distribution  0.875 0.125
c p distribution  0.875 0.125
c p distribution  0.875 0.125
c p distribution  0.875 0.125
c p distribution  0.875 0.125
c p distribution  0.875 0.125
c p distribution  0.875 0.125
c p distribution  0.875 0.125
c p distribution  0.875 0.125
c p distribution  0.875 0.125
c p distribution  0.875 0.125
c p distribution  0.875 0.125
c p distribution  0.875 0.125
c p distribution  0.875 0.125
c p distribution  0.875 0.125
c p distribution  0.875 0.125
c p distribution  0.875 0.125
c p distribution  0.875 0.125
c p distribution  0.875 0.125
c p distribution  0.875 0.125
c p distribution  0.875 0.125
c p distribution  0.875 0.125
c p distribution  0.875 0.125
c p distribution  0.875 0.125
c p distribution  0.875 0.125
c p distribution  0.875 0.125
c p distribution  0.875 0.125
c p distribution  0.875 0.125
c p distribution  0.875 0.125
c p distribution  0.875 0.125
c p distribution  0.875 0.125
c p distribution  0.875 0.125
c p distribution  0.875 0.125
c p distribution  0.875 0.125
c p distribution  0.875 0.125
c p distribution  0.875 0.125
c p distribution  0.875 0.125
c p distribution  0.875 0.125
c p distribution  0.875 0.125
c p distribution  0.875 0.125
c p distribution  0.875 0.125
c p distribution  0.875 0.125
c p distribution  0.875 0.125
c p distribution  0.875 0.125
c p distribution  0.875 0.125
c p distribution  0.875 0.125
c p distribution  0.875 0.125
c p distribution  0.875 0.125
c p distribution  0.875 0.125
c p distribution  0.875 0.125
c p distribution  0.875 0.125
c p distribution  0.875 0.125
c p distribution  0.875 0.125
c p distribution  0.875 0.125
c p distribution  0.875 0.125
c p distribution  0.875 0.125
c p distribution  0.875 0.125
c p distribution  0.875 0.125
c p distribution  0.875 0.125
c p distribution  0.875 0.125
c p distribution  0.875 0.125
c p distribution  0.875 0.125
c p distribution  0.875 0.125
c p distribution  0.875 0.125
c p distribution  0.875 0.125
c p distribution  0.875 0.125
c p distribution  0.875 0.125
c p distribution  0.875 0.125
c p distribution  0.875 0.125
c p distribution  0.875 0.125
c p distribution  0.875 0.125
c p distribution  0.875 0.125
c p distribution  0.875 0.125
c p distribution  0.875 0.125
c p distribution  0.875 0.125
c p distribution  0.875 0.125
c p distribution  0.875 0.125
c p distribution  0.875 0.125
c p distribution  0.875 0.125
c p distribution  0.875 0.125
c p distribution  0.875 0.125
c p distribution  0.875 0.125
c p distribution  0.875 0.125
c p distribution  0.875 0.125
c p distribution  0.875 0.125
c p distribution  0.875 0.125
c p distribution  0.875 0.125
c p distribution  0.875 0.125
c p distribution  0.875 0.125
c p distribution  0.875 0.125
c p distribution  0.875 0.125
c p distribution  0.875 0.125
c p distribution  0.875 0.125
c p distribution  0.875 0.125
c p distribution  0.875 0.125
c p distribution  0.875 0.125
c p distribution  0.875 0.125
c p distribution  0.875 0.125
c p distribution  0.875 0.125
c p distribution  0.875 0.125
c p distribution  0.875 0.125
c p distribution  0.875 0.125
c p distribution  0.875 0.125
c p distribution  0.875 0.125
c p distribution  0.875 0.125
c p distribution  0.875 0.125
c p distribution  0.875 0.125
c p distribution  0.875 0.125
c p distribution  0.875 0.125
c p distribution  0.875 0.125
c p distribution  0.875 0.125
c p distribution  0.875 0.125
c p distribution  0.875 0.125
c p distribution  0.875 0.125
c p distribution  0.875 0.125
c p distribution  0.875 0.125
c p distribution  0.875 0.125
c p distribution  0.875 0.125
c p distribution  0.875 0.125
c p distribution  0.875 0.125
c p distribution  0.875 0.125
c p distribution  0.875 0.125
c p distribution  0.875 0.125
c p distribution  0.875 0.125
c p distribution  0.875 0.125
c p distribution  0.875 0.125
c p distribution  0.875 0.125
c p distribution  0.875 0.125
c p distribution  0.875 0.125
c p distribution  0.875 0.125
c p distribution  0.875 0.125
c p distribution  0.875 0.125
c p distribution  0.875 0.125
c p distribution  0.875 0.125
c p distribution  0.875 0.125
c p distribution  0.875 0.125
c p distribution  0.875 0.125
c p distribution  0.875 0.125
c p distribution  0.875 0.125
c p distribution  0.875 0.125
c p distribution  0.875 0.125
c p distribution  0.875 0.125
c p distribution  0.875 0.125
c p distribution  0.875 0.125
c p distribution  0.875 0.125
c p distribution  0.875 0.125
c p distribution  0.875 0.125
c p distribution  0.875 0.125
c p distribution  0.875 0.125
c p distribution  0.875 0.125
c p distribution  0.875 0.125
c p distribution  0.875 0.125
c p distribution  0.875 0.125
c p distribution  0.875 0.125
c p distribution  0.875 0.125
c p distribution  0.875 0.125
c p distribution  0.875 0.125
c p distribution  0.875 0.125
c p distribution  0.875 0.125
c p distribution  0.875 0.125
c p distribution  0.875 0.125
c p distribution  0.875 0.125
c p distribution  0.875 0.125
c p distribution  0.875 0.125
c p distribution  0.875 0.125
c p distribution  0.875 0.125
c p distribution  0.875 0.125
c p distribution  0.875 0.125
c p distribution  0.875 0.125
c p distribution  0.875 0.125
c p distribution  0.875 0.125
c p distribution  0.875 0.125
c p distribution  0.875 0.125
c p distribution  0.875 0.125
c p distribution  0.875 0.125
c p distribution  0.875 0.125
c p distribution  0.875 0.125
c p distribution  0.875 0.125
c p distribution  0.875 0.125
c p distribution  0.875 0.125
c p distribution  0.875 0.125
c p distribution  0.875 0.125
c p distribution  0.875 0.125
c p distribution  0.875 0.125
c p distribution  0.875 0.125
c p distribution  0.875 0.125
c p distribution  0.875 0.125
552 0
-621 0
623 -629 -1 0
629 -623 -1 0
569 -556 -3 0
556 -569 -3 0
544 -592 -5 0
592 -544 -5 0
518 -489 -7 0
489 -518 -7 0
575 -552 -9 0
552 -575 -9 0
638 -542 -11 0
542 -638 -11 0
551 -485 -13 0
485 -551 -13 0
614 -578 -15 0
578 -614 -15 0
544 -592 -17 0
592 -544 -17 0
504 -556 -19 0
556 -504 -19 0
554 -585 -21 0
585 -554 -21 0
524 -485 -23 0
485 -524 -23 0
512 -520 -25 0
520 -512 -25 0
565 -482 -27 0
482 -565 -27 0
571 -640 -29 0
640 -571 -29 0
616 -543 -31 0
543 -616 -31 0
632 -538 -33 0
538 -632 -33 0
554 -551 -35 0
551 -554 -35 0
616 -511 -37 0
511 -616 -37 0
537 -637 -39 0
637 -537 -39 0
503 -566 -41 0
566 -503 -41 0
599 -514 -43 0
514 -599 -43 0
567 -483 -45 0
483 -567 -45 0
598 -581 -47 0
581 -598 -47 0
621 -570 -49 0
570 -621 -49 0
505 -620 -51 0
620 -505 -51 0
558 -490 -53 0
490 -558 -53 0
513 -581 -55 0
581 -513 -55 0
595 -577 -57 0
577 -595 -57 0
626 -592 -59 0
592 -626 -59 0
597 -534 -61 0
534 -597 -61 0
599 -617 -63 0
617 -599 -63 0
622 -590 -65 0
590 -622 -65 0
584 -543 -67 0
543 -584 -67 0
636 -637 -69 0
637 -636 -69 0
547 -524 -71 0
524 -547 -71 0
592 -542 -73 0
542 -592 -73 0
474 -629 -75 0
629 -474 -75 0
547 -487 -77 0
487 -547 -77 0
528 -616 -79 0
616 -528 -79 0
573 -602 -81 0
602 -573 -81 0
615 -560 -83 0
560 -615 -83 0
556 -559 -85 0
559 -556 -85 0
628 -631 -87 0
631 -628 -87 0
544 -592 -89 0
592 -544 -89 0
539 -589 -91 0
589 -539 -91 0
624 -522 -93 0
522 -624 -93 0
481 -554 -95 0
554 -481 -95 0
570 -584 -97 0
584 -570 -97 0
592 -623 -99 0
623 -592 -99 0
523 -524 -101 0
524 -523 -101 0
574 -604 -103 0
604 -574 -103 0
622 -519 -105 0
519 -622 -105 0
615 -560 -107 0
560 -615 -107 0
609 -630 -109 0
630 -609 -109 0
616 -575 -111 0
575 -616 -111 0
471 -583 -113 0
583 -471 -113 0
564 -557 -115 0
557 -564 -115 0
476 -629 -117 0
629 -476 -117 0
573 -638 -119 0
638 -573 -119 0
524 -503 -121 0
503 -524 -121 0
635 -563 -123 0
563 -635 -123 0
591 -497 -125 0
497 -591 -125 0
584 -535 -127 0
535 -584 -127 0
567 -496 -129 0
496 -567 -129 0
521 -577 -131 0
577 -521 -131 0
507 -605 -133 0
605 -507 -133 0
523 -524 -135 0
524 -523 -135 0
517 -562 -137 0
562 -517 -137 0
509 -623 -139 0
623 -509 -139 0
546 -550 -141 0
550 -546 -141 0
585 -577 -143 0
577 -585 -143 0
494 -582 -145 0
582 -494 -145 0
624 -600 -147 0
600 -624 -147 0
515 -486 -149 0
486 -515 -149 0
576 -519 -151 0
519 -576 -151 0
582 -577 -153 0
577 -582 -153 0
576 -478 -155 0
478 -576 -155 0
607 -491 -157 0
491 -607 -157 0
571 -535 -159 0
535 -571 -159 0
571 -589 -161 0
589 -571 -161 0
554 -487 -163 0
487 -554 -163 0
469 -555 -165 0
555 -469 -165 0
514 -487 -167 0
487 -514 -167 0
554 -555 -169 0
555 -554 -169 0
634 -519 -171 0
519 -634 -171 0
566 -564 -173 0
564 -566 -173 0
563 -611 -175 0
611 -563 -175 0
540 -553 -177 0
553 -540 -177 0
578 -605 -179 0
605 -578 -179 0
588 -534 -181 0
534 -588 -181 0
469 -633 -183 0
633 -469 -183 0
617 -480 -185 0
480 -617 -185 0
628 -559 -187 0
559 -628 -187 0
536 -490 -189 0
490 -536 -189 0
507 -577 -191 0
577 -507 -191 0
568 -491 -193 0
491 -568 -193 0
624 -522 -195 0
522 -624 -195 0
554 -551 -197 0
551 -554 -197 0
561 -592 -199 0
592 -561 -199 0
517 -562 -201 0
562 -517 -201 0
500 -552 -203 0
552 -500 -203 0
554 -480 -205 0
480 -554 -205 0
554 -582 -207 0
582 -554 -207 0
582 -635 -209 0
635 -582 -209 0
554 -566 -211 0
566 -554 -211 0
510 -580 -213 0
580 -510 -213 0
554 -617 -215 0
617 -554 -215 0
527 -472 -217 0
472 -527 -217 0
624 -471 -219 0
471 -624 -219 0
577 -635 -221 0
635 -577 -221 0
476 -573 -223 0
573 -476 -223 0
521 -487 -225 0
487 -521 -225 0
601 -472 -227 0
472 -601 -227 0
631 -559 -229 0
559 -631 -229 0
608 -523 -231 0
523 -608 -231 0
541 -549 -233 0
549 -541 -233 0
497 -503 -235 0
503 -497 -235 0
615 -560 -237 0
560 -615 -237 0
479 -612 -239 0
612 -479 -239 0
618 -536 -241 0
536 -618 -241 0
606 -530 -243 0
530 -606 -243 0
540 -618 -245 0
618 -540 -245 0
524 -608 -247 0
608 -524 -247 0
503 -485 -249 0
485 -503 -249 0
489 -487 -251 0
487 -489 -251 0
486 -490 -253 0
490 -486 -253 0
586 -580 -255 0
580 -586 -255 0
603 -592 -257 0
592 -603 -257 0
560 -492 -259 0
492 -560 -259 0
493 -502 -261 0
502 -493 -261 0
613 -548 -263 0
548 -613 -263 0
606 -549 -265 0
549 -606 -265 0
626 -592 -267 0
592 -626 -267 0
631 -493 -269 0
493 -631 -269 0
554 -625 -271 0
625 -554 -271 0
515 -572 -273 0
572 -515 -273 0
554 -595 -275 0
595 -554 -275 0
628 -483 -277 0
483 -628 -277 0
598 -636 -279 0
636 -598 -279 0
593 -489 -281 0
489 -593 -281 0
610 -563 -283 0
563 -610 -283 0
562 -472 -285 0
472 -562 -285 0
606 -506 -287 0
506 -606 -287 0
539 -475 -289 0
475 -539 -289 0
608 -524 -291 0
524 -608 -291 0
599 -548 -293 0
548 -599 -293 0
504 -489 -295 0
489 -504 -295 0
517 -521 -297 0
521 -517 -297 0
514 -548 -299 0
548 -514 -299 0
550 -577 -301 0
577 -550 -301 0
554 -605 -303 0
605 -554 -303 0
512 -587 -305 0
587 -512 -305 0
471 -583 -307 0
583 -471 -307 0
495 -505 -309 0
505 -495 -309 0
562 -590 -311 0
590 -562 -311 0
492 -532 -313 0
532 -492 -313 0
614 -569 -315 0
569 -614 -315 0
573 -592 -317 0
592 -573 -317 0
569 -559 -319 0
559 -569 -319 0
531 -581 -321 0
581 -531 -321 0
600 -512 -323 0
512 -600 -323 0
571 -627 -325 0
627 -571 -325 0
633 -596 -327 0
596 -633 -327 0
575 -627 -329 0
627 -575 -329 0
516 -489 -331 0
489 -516 -331 0
509 -474 -333 0
474 -509 -333 0
562 -583 -335 0
583 -562 -335 0
630 -474 -337 0
474 -630 -337 0
554 -503 -339 0
503 -554 -339 0
573 -639 -341 0
639 -573 -341 0
554 -633 -343 0
633 -554 -343 0
512 -527 -345 0
527 -512 -345 0
609 -476 -347 0
476 -609 -347 0
597 -534 -349 0
534 -597 -349 0
488 -627 -351 0
627 -488 -351 0
517 -472 -353 0
472 -517 -353 0
540 -598 -355 0
598 -540 -355 0
525 -537 -357 0
537 -525 -357 0
591 -547 -359 0
547 -591 -359 0
609 -474 -361 0
474 -609 -361 0
536 -505 -363 0
505 -536 -363 0
561 -618 -365 0
618 -561 -365 0
622 -590 -367 0
590 -622 -367 0
565 -541 -369 0
541 -565 -369 0
576 -594 -371 0
594 -576 -371 0
480 -524 -373 0
524 -480 -373 0
564 -625 -375 0
625 -564 -375 0
607 -520 -377 0
520 -607 -377 0
636 -508 -379 0
508 -636 -379 0
482 -545 -381 0
545 -482 -381 0
579 -494 -383 0
494 -579 -383 0
597 -534 -385 0
534 -597 -385 0
564 -501 -387 0
501 -564 -387 0
633 -524 -389 0
524 -633 -389 0
560 -533 -391 0
533 -560 -391 0
494 -507 -393 0
507 -494 -393 0
543 -535 -395 0
535 -543 -395 0
626 -570 -397 0
570 -626 -397 0
473 -482 -399 0
482 -473 -399 0
618 -498 -401 0
498 -618 -401 0
509 -629 -403 0
629 -509 -403 0
603 -532 -405 0
532 -603 -405 0
588 -558 -407 0
558 -588 -407 0
639 -542 -409 0
542 -639 -409 0
540 -505 -411 0
505 -540 -411 0
564 -577 -413 0
577 -564 -413 0
484 -541 -415 0
541 -484 -415 0
554 -538 -417 0
538 -554 -417 0
515 -484 -419 0
484 -515 -419 0
554 -566 -421 0
566 -554 -421 0
595 -524 -423 0
524 -595 -423 0
472 -597 -425 0
597 -472 -425 0
568 -496 -427 0
496 -568 -427 0
603 -592 -429 0
592 -603 -429 0
634 -576 -431 0
576 -634 -431 0
624 -471 -433 0
471 -624 -433 0
524 -554 -435 0
554 -524 -435 0
558 -486 -437 0
486 -558 -437 0
591 -585 -439 0
585 -591 -439 0
492 -532 -441 0
532 -492 -441 0
479 -493 -443 0
493 -479 -443 0
531 -499 -445 0
499 -531 -445 0
554 -524 -447 0
524 -554 -447 0
554 -625 -449 0
625 -554 -449 0
538 -550 -451 0
550 -538 -451 0
628 -574 -453 0
574 -628 -453 0
630 -477 -455 0
477 -630 -455 0
562 -522 -457 0
522 -562 -457 0
592 -618 -459 0
618 -592 -459 0
554 -504 -461 0
504 -554 -461 0
564 -610 -463 0
610 -564 -463 0
571 -584 -465 0
584 -571 -465 0
562 -554 -467 0
554 -562 -467 0

